50
    1    55    55
    2    56    56
    3    96    96
    4    92    92
    5    46    46
    6    86    86
    7    27    27
    8    82    82
    9     8     8
   10    67    67
   11    65    65
   12    91    91
   13    81    81
   14    19    19
   15    95    95
   16    65    65
   17    93    93
   18    12    12
   19    22    22
   20    92    92
   21    95    95
   22    41    41
   23    79    79
   24     9     9
   25    96    96
   26    41    41
   27    56    56
   28   100   100
   29    28    28
   30    41    41
   31    28    28
   32    94    94
   33    45    45
   34    24    24
   35    88    88
   36    84    84
   37    61    61
   38    32    32
   39    90    90
   40    39    39
   41    77    77
   42    39    39
   43    11    11
   44    85    85
   45    56    56
   46    42    42
   47    14    14
   48    58    58
   49    56    56
   50    35    35
2411
